p tdp 20 110
1 2
1 4
1 8
1 9
1 13
1 14
1 15
1 16
1 19
1 20
2 4
2 5
2 7
2 8
2 9
2 11
2 12
2 13
2 17
2 18
2 20
3 4
3 5
3 6
3 7
3 11
3 12
3 14
3 16
3 17
3 18
4 5
4 9
4 10
4 11
4 12
4 13
4 14
4 18
4 19
4 20
5 7
5 8
5 12
5 13
5 14
5 15
5 16
5 19
6 9
6 11
6 13
6 15
6 16
6 19
6 20
7 8
7 9
7 10
7 12
7 13
7 17
7 20
8 11
8 13
8 14
8 16
8 18
8 19
8 20
9 11
9 13
9 15
9 17
9 18
9 19
9 20
10 11
10 12
10 14
10 16
10 17
10 19
11 12
11 15
11 16
11 17
11 18
11 20
12 14
12 15
12 16
12 17
12 18
13 16
13 17
13 18
13 19
14 16
14 17
14 19
14 20
15 16
15 17
15 18
15 19
16 20
17 18
17 20
18 19
